33D32945 STP File, STP Format Version 1.0

SECTION Comments
Name "cube_n14_d3_s35"
Problem "Euclidean Steiner Tree Problem"
Remark "Generated with STPGenerator. 3 dimensions."
END

SECTION Graph
Nodes 14
END

SECTION Coordinates
DDD 0 0.5244897048 0.4379004908 0.0703035561
DDD 1 0.1812310276 0.1675375119 0.7022328906
DDD 2 0.1086744881 0.7979400231 0.6606961906
DDD 3 0.4311483691 0.7982122655 0.1291394788
DDD 4 0.0071734451 0.7727813925 0.1620692490
DDD 5 0.0411185827 0.8098084530 0.6971266361
DDD 6 0.7090024225 0.6096137295 0.4707293680
DDD 7 0.5849627301 0.0336940070 0.4157471649
DDD 8 0.4610662150 0.6987889817 0.7545507828
DDD 9 0.7532587111 0.6467614917 0.3806424362
DDD 10 0.9537834986 0.1712511960 0.8185429270
DDD 11 0.0240870542 0.3524822240 0.9860804393
DDD 12 0.7263199448 0.4611567121 0.7840204620
DDD 13 0.3870161350 0.8923050812 0.5822327270
END
